9272
7
21
25
6
26
32
24
18
20
130
105
102
97
142
114
134
118
88
128
107
132
143
87
92
173
170
174
188
190
182
189
177
169
178
184
185
165
168
166
161
162
187
183
179
181
164
192
163
180
167
101
171
191
175
176
186
172
117
91
127
110
135
139
89
109
123
82
81
84
86
85
99
83
80
100
90
96
125
93
131
136
116
73
140
1
57
8
58
141
55
29
108
12
66
78
11
14
72
35
40
54
56
61
68
112
124
144
77
65
62
75
69
53
67
76
79
71
59
52
63
60
95
94
129
138
122
137
121
106
195
111
113
119
193
198
194
98
120
200
199
196
45
133
10
3
115
197
27
152
160
147
158
149
155
146
156
159
151
148
154
157
150
153
126
9
41
48
33
103
22
44
42
49
145
70
74
64
5
23
17
38
50
36
46
51
34
104
19
15
37
30
47
39
4
16
31
43
2
28
13
